NAME : Christ75-10-f.50288.tour
COMMENT : Length = 50288
COMMENT : Found by LKH-3 [Keld Helsgaun] Tue Dec 17 14:06:57 2024
TYPE : TOUR
DIMENSION : 95
TOUR_SECTION
1
86
2
46
57
31
71
38
84
40
58
39
55
37
62
56
44
77
36
85
78
27
61
26
73
43
83
72
32
74
52
53
51
15
11
66
12
33
16
14
59
34
18
13
17
28
19
65
35
60
42
54
50
22
49
82
68
20
48
75
76
21
24
63
45
29
64
23
67
25
47
30
80
70
81
87
3
88
4
89
5
79
90
6
91
7
92
8
69
93
9
94
10
41
95
-1
EOF
